#######################################
### Exact MIP solver for the HHCRSP ###
#######################################
-- Instance file: new-instances/HHCRSP_200_40_30_0.8_C_C.txt
-- Max threads: 4
-- Time limit: 999999 seconds
-- Use initial solution: No
Trivial flow violations prevented generating 344640 variables.
Version identifier: 20.1.0.0 | 2020-11-10 | 9bedb6d68
CPXPARAM_Threads                                 4
CPXPARAM_TimeLimit                               999999
Parallel mode: deterministic, using up to 4 threads for concurrent optimization:
 * Starting dual Simplex on 1 thread...
 * Starting Barrier on 3 threads...
Tried aggregator 1 time.
LP Presolve eliminated 20616 rows and 4592 columns.
Reduced LP has 378418 rows, 360617 columns, and 6364040 nonzeros.
Presolve time = 12.66 sec. (1488.55 ticks)
Symmetry aggregator did 572801 additional substitutions.
Initializing dual steep norms . . .

Iteration log . . .
Iteration:     1   Dual objective     =             1.333333
Iteration:   860   Dual objective     =           206.055556

Dual crossover.
  Dual:  Fixing 928 variables.
      927 DMoves:  Infeasibility  5.89028826e-13  Objective  2.07000000e+02
        0 DMoves:  Infeasibility  2.66731082e-13  Objective  2.07000000e+02
  Dual:  Pushed 12, exchanged 916.
  Primal:  Fixing 542 variables.
      541 PMoves:  Infeasibility  0.00000000e+00  Objective  2.07000000e+02
        0 PMoves:  Infeasibility  0.00000000e+00  Objective  2.07000000e+02
  Primal:  Pushed 438, exchanged 104.

Dual simplex solved model.


Solution status from MIP model:
-- Processing time: 22.622 sec.
-- Memory used: 415.69 MB
-- Best bound: inf
-- Obj value: 207
-- Gap: inf%
-- Total distance: 621
-- Total tardiness: 0
-- Largest tardiness: 0
